c bitvector 0: 1 2 3 4 5 6 7 8 9 10
c bitvector 1: 11 12 13 14 15 16 17 18 19 20
c bitvector 2: 21 22 23 24 25 26 27 28 29 30
c bitvector 3: 31 32 33 34 35 36 37 38 39 40
c bitvector 4: 41 42 43 44 45 46 47 48 49 50
p cnf 74 127
-1 0
2 0
-3 0
4 0
-5 0
-6 0
-7 0
-8 0
-9 0
-10 0
-11 0
-12 0
-13 0
-14 0
-15 0
-16 0
-17 0
-18 0
-19 0
-20 0
-51 0
-52 -1 1 0
-52 1 -1 0
52 1 1 0
52 -1 -1 0
-62 52 0
-53 -2 2 0
-53 2 -2 0
53 2 2 0
53 -2 -2 0
-62 53 0
-54 -3 3 0
-54 3 -3 0
54 3 3 0
54 -3 -3 0
-62 54 0
-55 -4 4 0
-55 4 -4 0
55 4 4 0
55 -4 -4 0
-62 55 0
-56 -5 5 0
-56 5 -5 0
56 5 5 0
56 -5 -5 0
-62 56 0
-57 -6 6 0
-57 6 -6 0
57 6 6 0
57 -6 -6 0
-62 57 0
-58 -7 7 0
-58 7 -7 0
58 7 7 0
58 -7 -7 0
-62 58 0
-59 -8 8 0
-59 8 -8 0
59 8 8 0
59 -8 -8 0
-62 59 0
-60 -9 9 0
-60 9 -9 0
60 9 9 0
60 -9 -9 0
-62 60 0
-61 -10 10 0
-61 10 -10 0
61 10 10 0
61 -10 -10 0
-62 61 0
-52 -53 -54 -55 -56 -57 -58 -59 -60 -61 62 0
-63 -21 41 0
-63 21 -41 0
63 21 41 0
63 -21 -41 0
-73 63 0
-64 -22 42 0
-64 22 -42 0
64 22 42 0
64 -22 -42 0
-73 64 0
-65 -23 43 0
-65 23 -43 0
65 23 43 0
65 -23 -43 0
-73 65 0
-66 -24 44 0
-66 24 -44 0
66 24 44 0
66 -24 -44 0
-73 66 0
-67 -25 45 0
-67 25 -45 0
67 25 45 0
67 -25 -45 0
-73 67 0
-68 -26 46 0
-68 26 -46 0
68 26 46 0
68 -26 -46 0
-73 68 0
-69 -27 47 0
-69 27 -47 0
69 27 47 0
69 -27 -47 0
-73 69 0
-70 -28 48 0
-70 28 -48 0
70 28 48 0
70 -28 -48 0
-73 70 0
-71 -29 49 0
-71 29 -49 0
71 29 49 0
71 -29 -49 0
-73 71 0
-72 -30 50 0
-72 30 -50 0
72 30 50 0
72 -30 -50 0
-73 72 0
-63 -64 -65 -66 -67 -68 -69 -70 -71 -72 73 0
-62 51 73 0
-51 74 0
-62 74 0
-74 51 62 0
